p cnf 7230 15
-1786 2334 -2339 0
1786 -2335 0
-2335 2339 0
2331 -2333 0
-2334 2335 0
-1742 2333 0
2332 -2333 0
1742 -2332 0
-2337 2339 0
2338 -2339 0
2336 -2338 0
-1744 2337 0
1744 -2336 0
2330 -2331 0
-2330 2331 0
